WARNING: for repeatability, setting FPU to use double precision
============================[ Problem Statistics ]=============================
|                                                                             |
|  Number of variables:           100                                         |
|  Number of clauses:             449                                         |
|  Parse time:                   0.00 s                                       |
|  Simplification time:          0.00 s                                       |
|                                                                             |
============================[ Search Statistics ]==============================
| Conflicts |          ORIGINAL         |          LEARNT          | Progress |
|           |    Vars  Clauses Literals |    Limit  Clauses Lit/Cl |          |
===============================================================================
|       100 |     100      449     1347 |      164      100      7 |  0.010 % |
|       250 |     100      449     1347 |      181      164      7 |  0.010 % |
===============================================================================
restarts              : 3
conflicts             : 340            (88889 /sec)
decisions             : 437            (0.00 % random) (114248 /sec)
propagations          : 7864           (2055948 /sec)
conflict literals     : 2396           (16.34 % deleted)
Memory used           : 13.00 MB
CPU time              : 0.003825 s

SATISFIABLE
